1646132400
1646155800
1646218800
1646242200
1646305200
1646328600
1646650800
1646674200
1646737200
1646760600
1646823600
1646847000
1646910000
1646933400
1646996400
1647019800
1647241200
1647279900
1647356400
1647363600
1647442800
1647450000
1647529200
1647536400
1647608400
1647622800
1647874800
1647882000
1647961200
1647968400
1648047600
1648054800
1648562400
1648569600
1648648800
1648656000
1648742400
1648735200
